AES/1_4_4/ssaes_r1-20_c4_rw1_e4_f0_k1-20_aes_min_box_aes_mc_bidirectional/ExperimentMinisat_r9_k8cnf_2011-11-18-083219/Result
WARNING: for repeatability, setting FPU to use double precision
============================[ Problem Statistics ]=============================
|                                                                             |
|  Number of variables:           696                                         |
|  Number of clauses:            2782                                         |
|  Parse time:                   0.00 s                                       |
|  Eliminated clauses:           0.01 Mb                                      |
|  Simplification time:          0.00 s                                       |
|                                                                             |
=============================[ Search Statistics ]==============================
| Conflicts  |          ORIGINAL         |          LEARNT          | Progress |
|            |    Vars  Clauses Literals |    Limit  Clauses Lit/Cl |          |
================================================================================
|        100 |     468     2110     7018 |      773      100      9 |  9.771 % |
|        250 |     468     2110     7018 |      851      250     12 |  9.770 % |
|        475 |     468     2110     7018 |      936      475     14 |  9.770 % |
|        812 |     468     2110     7018 |     1029      812     15 |  9.770 % |
|       1318 |     468     2110     7018 |     1132      760     15 |  9.770 % |
|       2077 |     468     2110     7018 |     1245      903     13 |  9.770 % |
|       3216 |     468     2110     7018 |     1370      683      9 |  9.770 % |
===============================================================================
restarts              : 21
conflicts             : 3986           (30904 /sec)
decisions             : 5052           (0.00 % random) (39169 /sec)
propagations          : 643836         (4991751 /sec)
conflict literals     : 71537          (40.56 % deleted)
Memory used           : 8.00 MB
CPU time              : 0.12898 s

SATISFIABLE
